M = 8;
N = 12;
E = 110;
l = [180, 160, 185, 200, 180, 160, 175, 200];
p = [10, 25, 18, 16, 14, 7, 9, 16, 24, 19];
from = [11, 11, 11, 11, 11, 11, 11, 11, 11, 11, 1, 1, 1, 1, 1, 1, 1, 1, 1, 1, 2, 2, 2, 2, 2, 2, 2, 2, 2, 2, 3, 3, 3, 3, 3, 3, 3, 3, 3, 3, 4, 4, 4, 4, 4, 4, 4, 4, 4, 4, 5, 5, 5, 5, 5, 5, 5, 5, 5, 5, 6, 6, 6, 6, 6, 6, 6, 6, 6, 6, 7, 7, 7, 7, 7, 7, 7, 7, 7, 7, 8, 8, 8, 8, 8, 8, 8, 8, 8, 8, 9, 9, 9, 9, 9, 9, 9, 9, 9, 9, 10, 10, 10, 10, 10, 10, 10, 10, 10, 10];
to = [1, 2, 3, 4, 5, 6, 7, 8, 9, 10, 2, 3, 4, 5, 6, 7, 8, 9, 10, 12, 1, 3, 4, 5, 6, 7, 8, 9, 10, 12, 1, 2, 4, 5, 6, 7, 8, 9, 10, 12, 1, 2, 3, 5, 6, 7, 8, 9, 10, 12, 1, 2, 3, 4, 6, 7, 8, 9, 10, 12, 1, 2, 3, 4, 5, 7, 8, 9, 10, 12, 1, 2, 3, 4, 5, 6, 8, 9, 10, 12, 1, 2, 3, 4, 5, 6, 7, 9, 10, 12, 1, 2, 3, 4, 5, 6, 7, 8, 10, 12, 1, 2, 3, 4, 5, 6, 7, 8, 9, 12];
w = [93, 37, 70, 40, 53, 76, 41, 70, 82, 65, 56, 86, 87, 81, 128, 107, 163, 166, 98, 93, 56, 80, 31, 63, 87, 61, 107, 119, 76, 37, 86, 71, 102, 17, 42, 111, 77, 90, 12, 70, 87, 31, 110, 93, 116, 30, 77, 89, 105, 40, 81, 63, 17, 93, 47, 94, 82, 94, 17, 53, 128, 87, 42, 116, 47, 117, 52, 92, 30, 76, 117, 61, 111, 30, 94, 117, 65, 59, 106, 41, 163, 107, 77, 77, 82, 52, 65, 40, 65, 70, 166, 110, 90, 79, 94, 92, 49, 40, 82, 82, 98, 76, 12, 105, 17, 30, 106, 65, 82, 65];
